c nIsolatedPIs 0
c maxPI 32
p cnf 177 436
c gate 33 11 27 0
11 -33 0
27 -33 0
-11 -27 33 0
c gate 34 -11 -27 0
-11 -34 0
-27 -34 0
11 27 34 0
c gate 35 -33 -34 0
-33 -35 0
-34 -35 0
33 34 35 0
c gate 36 -10 26 0
-10 -36 0
26 -36 0
10 -26 36 0
c gate 37 9 25 0
9 -37 0
25 -37 0
-9 -25 37 0
c gate 38 -9 -25 0
-9 -38 0
-25 -38 0
9 25 38 0
c gate 39 -37 -38 0
-37 -39 0
-38 -39 0
37 38 39 0
c gate 40 -2 18 0
-2 -40 0
18 -40 0
2 -18 40 0
c gate 41 -1 17 0
-1 -41 0
17 -41 0
1 -17 41 0
c gate 42 -40 -41 0
-40 -42 0
-41 -42 0
40 41 42 0
c gate 43 2 -18 0
2 -43 0
-18 -43 0
-2 18 43 0
c gate 44 3 -19 0
3 -44 0
-19 -44 0
-3 19 44 0
c gate 45 -43 -44 0
-43 -45 0
-44 -45 0
43 44 45 0
c gate 46 -42 45 0
-42 -46 0
45 -46 0
42 -45 46 0
c gate 47 -4 20 0
-4 -47 0
20 -47 0
4 -20 47 0
c gate 48 -3 19 0
-3 -48 0
19 -48 0
3 -19 48 0
c gate 49 -47 -48 0
-47 -49 0
-48 -49 0
47 48 49 0
c gate 50 -46 49 0
-46 -50 0
49 -50 0
46 -49 50 0
c gate 51 5 -21 0
5 -51 0
-21 -51 0
-5 21 51 0
c gate 52 4 -20 0
4 -52 0
-20 -52 0
-4 20 52 0
c gate 53 -51 -52 0
-51 -53 0
-52 -53 0
51 52 53 0
c gate 54 -50 53 0
-50 -54 0
53 -54 0
50 -53 54 0
c gate 55 -6 -22 0
-6 -55 0
-22 -55 0
6 22 55 0
c gate 56 6 22 0
6 -56 0
22 -56 0
-6 -22 56 0
c gate 57 -55 -56 0
-55 -57 0
-56 -57 0
55 56 57 0
c gate 58 -5 21 0
-5 -58 0
21 -58 0
5 -21 58 0
c gate 59 -57 -58 0
-57 -59 0
-58 -59 0
57 58 59 0
c gate 60 -54 59 0
-54 -60 0
59 -60 0
54 -59 60 0
c gate 61 7 -23 0
7 -61 0
-23 -61 0
-7 23 61 0
c gate 62 6 -22 0
6 -62 0
-22 -62 0
-6 22 62 0
c gate 63 -61 -62 0
-61 -63 0
-62 -63 0
61 62 63 0
c gate 64 -60 63 0
-60 -64 0
63 -64 0
60 -63 64 0
c gate 65 -7 23 0
-7 -65 0
23 -65 0
7 -23 65 0
c gate 66 8 24 0
8 -66 0
24 -66 0
-8 -24 66 0
c gate 67 -8 -24 0
-8 -67 0
-24 -67 0
8 24 67 0
c gate 68 -66 -67 0
-66 -68 0
-67 -68 0
66 67 68 0
c gate 69 -65 -68 0
-65 -69 0
-68 -69 0
65 68 69 0
c gate 70 -64 69 0
-64 -70 0
69 -70 0
64 -69 70 0
c gate 71 -39 70 0
-39 -71 0
70 -71 0
39 -70 71 0
c gate 72 10 -26 0
10 -72 0
-26 -72 0
-10 26 72 0
c gate 73 9 -25 0
9 -73 0
-25 -73 0
-9 25 73 0
c gate 74 8 -24 0
8 -74 0
-24 -74 0
-8 24 74 0
c gate 75 -39 74 0
-39 -75 0
74 -75 0
39 -74 75 0
c gate 76 -73 -75 0
-73 -76 0
-75 -76 0
73 75 76 0
c gate 77 -72 76 0
-72 -77 0
76 -77 0
72 -76 77 0
c gate 78 -71 77 0
-71 -78 0
77 -78 0
71 -77 78 0
c gate 79 -36 -78 0
-36 -79 0
-78 -79 0
36 78 79 0
c gate 80 -35 -79 0
-35 -80 0
-79 -80 0
35 79 80 0
c gate 81 10 26 0
10 -81 0
26 -81 0
-10 -26 81 0
c gate 82 -33 -81 0
-33 -82 0
-81 -82 0
33 81 82 0
c gate 83 -7 -23 0
-7 -83 0
-23 -83 0
7 23 83 0
c gate 84 -67 -83 0
-67 -84 0
-83 -84 0
67 83 84 0
c gate 85 -37 -66 0
-37 -85 0
-66 -85 0
37 66 85 0
c gate 86 -84 85 0
-84 -86 0
85 -86 0
84 -85 86 0
c gate 87 -10 -26 0
-10 -87 0
-26 -87 0
10 26 87 0
c gate 88 -38 -87 0
-38 -88 0
-87 -88 0
38 87 88 0
c gate 89 -86 88 0
-86 -89 0
88 -89 0
86 -88 89 0
c gate 90 82 -89 0
82 -90 0
-89 -90 0
-82 89 90 0
c gate 91 -12 -28 0
-12 -91 0
-28 -91 0
12 28 91 0
c gate 92 12 28 0
12 -92 0
28 -92 0
-12 -28 92 0
c gate 93 -91 -92 0
-91 -93 0
-92 -93 0
91 92 93 0
c gate 94 -34 93 0
-34 -94 0
93 -94 0
34 -93 94 0
c gate 95 -90 94 0
-90 -95 0
94 -95 0
90 -94 95 0
c gate 96 -2 -18 0
-2 -96 0
-18 -96 0
2 18 96 0
c gate 97 1 17 0
1 -97 0
17 -97 0
-1 -17 97 0
c gate 98 -96 97 0
-96 -98 0
97 -98 0
96 -97 98 0
c gate 99 3 19 0
3 -99 0
19 -99 0
-3 -19 99 0
c gate 100 2 18 0
2 -100 0
18 -100 0
-2 -18 100 0
c gate 101 -99 -100 0
-99 -101 0
-100 -101 0
99 100 101 0
c gate 102 -98 101 0
-98 -102 0
101 -102 0
98 -101 102 0
c gate 103 -4 -20 0
-4 -103 0
-20 -103 0
4 20 103 0
c gate 104 -3 -19 0
-3 -104 0
-19 -104 0
3 19 104 0
c gate 105 -103 -104 0
-103 -105 0
-104 -105 0
103 104 105 0
c gate 106 -102 105 0
-102 -106 0
105 -106 0
102 -105 106 0
c gate 107 4 20 0
4 -107 0
20 -107 0
-4 -20 107 0
c gate 108 5 21 0
5 -108 0
21 -108 0
-5 -21 108 0
c gate 109 -107 -108 0
-107 -109 0
-108 -109 0
107 108 109 0
c gate 110 -106 109 0
-106 -110 0
109 -110 0
106 -109 110 0
c gate 111 -5 -21 0
-5 -111 0
-21 -111 0
5 21 111 0
c gate 112 -55 -111 0
-55 -112 0
-111 -112 0
55 111 112 0
c gate 113 -110 112 0
-110 -113 0
112 -113 0
110 -112 113 0
c gate 114 -61 -65 0
-61 -114 0
-65 -114 0
61 65 114 0
c gate 115 -56 -114 0
-56 -115 0
-114 -115 0
56 114 115 0
c gate 116 -113 115 0
-113 -116 0
115 -116 0
113 -115 116 0
c gate 117 -37 68 0
-37 -117 0
68 -117 0
37 -68 117 0
c gate 118 116 117 0
116 -118 0
117 -118 0
-116 -117 118 0
c gate 119 89 -118 0
89 -119 0
-118 -119 0
-89 118 119 0
c gate 120 82 -119 0
82 -120 0
-119 -120 0
-82 119 120 0
c gate 121 94 -120 0
94 -121 0
-120 -121 0
-94 120 121 0
c gate 122 -16 -32 0
-16 -122 0
-32 -122 0
16 32 122 0
c gate 123 16 32 0
16 -123 0
32 -123 0
-16 -32 123 0
c gate 124 -122 -123 0
-122 -124 0
-123 -124 0
122 123 124 0
c gate 125 -13 -29 0
-13 -125 0
-29 -125 0
13 29 125 0
c gate 126 13 29 0
13 -126 0
29 -126 0
-13 -29 126 0
c gate 127 -125 -126 0
-125 -127 0
-126 -127 0
125 126 127 0
c gate 128 124 127 0
124 -128 0
127 -128 0
-124 -127 128 0
c gate 129 -14 -30 0
-14 -129 0
-30 -129 0
14 30 129 0
c gate 130 14 30 0
14 -130 0
30 -130 0
-14 -30 130 0
c gate 131 -129 -130 0
-129 -131 0
-130 -131 0
129 130 131 0
c gate 132 -15 -31 0
-15 -132 0
-31 -132 0
15 31 132 0
c gate 133 15 31 0
15 -133 0
31 -133 0
-15 -31 133 0
c gate 134 -132 -133 0
-132 -134 0
-133 -134 0
132 133 134 0
c gate 135 131 134 0
131 -135 0
134 -135 0
-131 -134 135 0
c gate 136 128 135 0
128 -136 0
135 -136 0
-128 -135 136 0
c gate 137 121 136 0
121 -137 0
136 -137 0
-121 -136 137 0
c gate 138 95 -137 0
95 -138 0
-137 -138 0
-95 137 138 0
c gate 139 -60 138 0
-60 -139 0
138 -139 0
60 -138 139 0
c gate 140 -68 114 0
-68 -140 0
114 -140 0
68 -114 140 0
c gate 141 60 -140 0
60 -141 0
-140 -141 0
-60 140 141 0
c gate 142 -139 -141 0
-139 -142 0
-141 -142 0
139 141 142 0
c gate 143 -70 142 0
-70 -143 0
142 -143 0
70 -142 143 0
c gate 144 -81 -87 0
-81 -144 0
-87 -144 0
81 87 144 0
c gate 145 76 144 0
76 -145 0
144 -145 0
-76 -144 145 0
c gate 146 71 -145 0
71 -146 0
-145 -146 0
-71 145 146 0
c gate 147 -143 -146 0
-143 -147 0
-146 -147 0
143 146 147 0
c gate 148 35 76 0
35 -148 0
76 -148 0
-35 -76 148 0
c gate 149 146 148 0
146 -149 0
148 -149 0
-146 -148 149 0
c gate 150 -147 -149 0
-147 -150 0
-149 -150 0
147 149 150 0
c gate 151 -80 -150 0
-80 -151 0
-150 -151 0
80 150 151 0
c gate 152 -93 -124 0
-93 -152 0
-124 -152 0
93 124 152 0
c gate 153 -127 -131 0
-127 -153 0
-131 -153 0
127 131 153 0
c gate 154 -134 153 0
-134 -154 0
153 -154 0
134 -153 154 0
c gate 155 152 154 0
152 -155 0
154 -155 0
-152 -154 155 0
c gate 156 80 155 0
80 -156 0
155 -156 0
-80 -155 156 0
c gate 157 -151 -156 0
-151 -157 0
-156 -157 0
151 156 157 0
c gate 158 -142 157 0
-142 -158 0
157 -158 0
142 -157 158 0
c gate 159 -116 -121 0
-116 -159 0
-121 -159 0
116 121 159 0
c gate 160 -138 -159 0
-138 -160 0
-159 -160 0
138 159 160 0
c gate 161 -157 -160 0
-157 -161 0
-160 -161 0
157 160 161 0
c gate 162 -138 157 0
-138 -162 0
157 -162 0
138 -157 162 0
c gate 163 -161 -162 0
-161 -163 0
-162 -163 0
161 162 163 0
c gate 164 -60 -163 0
-60 -164 0
-163 -164 0
60 163 164 0
c gate 165 -141 -157 0
-141 -165 0
-157 -165 0
141 157 165 0
c gate 166 -164 165 0
-164 -166 0
165 -166 0
164 -165 166 0
c gate 167 -158 -166 0
-158 -167 0
-166 -167 0
158 166 167 0
c gate 168 -70 -167 0
-70 -168 0
-167 -168 0
70 167 168 0
c gate 169 70 157 0
70 -169 0
157 -169 0
-70 -157 169 0
c gate 170 -168 -169 0
-168 -170 0
-169 -170 0
168 169 170 0
c gate 171 -150 170 0
-150 -171 0
170 -171 0
150 -170 171 0
c gate 172 -147 157 0
-147 -172 0
157 -172 0
147 -157 172 0
c gate 173 -71 -157 0
-71 -173 0
-157 -173 0
71 157 173 0
c gate 174 -168 173 0
-168 -174 0
173 -174 0
168 -173 174 0
c gate 175 -172 -174 0
-172 -175 0
-174 -175 0
172 174 175 0
c gate 176 -171 175 0
-171 -176 0
175 -176 0
171 -175 176 0
c gate 177 80 -176 0
80 -177 0
-176 -177 0
-80 176 177 0
c PO
177 0
